(set-info :status unsat)
(declare-datatypes ((Nat 0)) (((z) (s (pred Nat)))))
(assert (not (exists ((w3 Nat)) (and (or (= (s (s (s (s (s (s (s z))))))) (s w3)) (= (s (s (s (s (s (s (s z))))))) (s (s w3)))) (forall ((l2 Nat)) (=> (or (= w3 (s l2)) (= w3 (s (s l2)))) (exists ((w2 Nat)) (and (or (= l2 (s w2)) (= l2 (s (s w2)))) (forall ((l1 Nat)) (=> (or (= w2 (s l1)) (= w2 (s (s l1)))) (exists ((w1 Nat)) (and (or (= l1 (s w1)) (= l1 (s (s w1)))) (forall ((l0 Nat)) (=> (or (= w1 (s l0)) (= w1 (s (s l0)))) false))))))))))))))
(check-sat)
